Route #1: 43 23 22 50 38 9 12 5 40
Route #2: 46 28 14 44 51 17 8 10 18
Route #3: 42 29 37 4 39 26 21 47
Route #4: 19 7 15 41 45 24 6 53
Route #5: 25 1 52 16 35 32 36 3
Route #6: 13 11 55 20 31 30 34 54 2 33 49
Route #7: 48 27
Cost 719